networks/zoo_110_2380/zoo_110_2380.txt
Number of groups: 59
Flow 10: {19 11} {11 66} 
Flow 51: {1 30} {30 13} {13 52} {52 107} 
Flow 66: {14 69} 
Flow 70: {2 5} {5 9} {9 20} {20 18} {18 73} 
Flow 134: {3 30} {30 29} {29 28} {28 83} 
Flow 142: {17 36} {36 91} 
Flow 192: {4 32} {32 33} 
Flow 270: {6 50} {50 5} {5 8} {8 63} 
Flow 366: {7 50} {50 54} {54 109} 
Flow 368: {8 5} {5 2} {2 57} 
Flow 374: {5 50} {50 13} {13 68} 
Flow 390: {9 39} {39 94} 
Flow 462: {10 9} {9 40} {40 7} {7 62} 
Flow 514: {11 19} {19 20} {20 75} 
Flow 556: {12 26} {26 27} {27 82} 
Flow 577: {26 54} {54 35} {35 49} {49 104} 
Flow 700: {15 29} {29 30} {30 32} {32 35} {35 90} 
Flow 738: {51 32} {32 34} {34 89} 
Flow 745: {16 29} {29 13} {13 41} {41 96} 
Flow 822: {18 20} {20 19} {19 74} 
Flow 917: {20 17} {17 44} {44 43} {43 98} 
Flow 947: {21 20} {20 22} {22 77} 
Flow 979: {22 20} {20 9} {9 64} 
Flow 986: {23 32} {32 4} {4 59} 
Flow 1059: {24 32} {32 23} {23 78} 
Flow 1112: {25 50} {50 39} 
Flow 1196: {27 26} {26 13} {13 44} {44 42} {42 97} 
Flow 1220: {28 29} {29 84} 
Flow 1265: {29 16} {16 51} {51 33} {33 88} 
Flow 1382: {31 14} {14 30} {30 47} {47 102} 
Flow 1449: {33 51} {51 16} {16 71} 
Flow 1468: {33 32} {32 14} {14 53} {53 108} 
Flow 1518: {34 54} 
Flow 1530: {35 54} {54 26} {26 12} {12 67} 
Flow 1575: {36 17} {17 50} {50 6} {6 61} 
Flow 1627: {37 44} {44 45} {45 100} 
Flow 1654: {38 17} {17 20} {20 21} {21 76} 
Flow 1710: {39 50} {50 25} {25 80} 
Flow 1722: {44 37} {37 92} 
Flow 1739: {39 9} {9 41} {41 55} {55 110} 
Flow 1742: {40 9} {9 5} {5 60} 
Flow 1825: {42 44} {44 99} 
Flow 1841: {43 44} {44 17} {17 72} 
Flow 1921: {45 44} {44 13} {13 50} {50 105} 
Flow 1930: {46 32} {32 50} {50 9} {9 10} {10 65} 
Flow 2000: {30 51} 
Flow 2014: {47 30} {30 14} {14 48} {48 103} 
Flow 2028: {48 14} {14 32} {32 24} {24 79} 
Flow 2040: {32 30} {30 1} {1 56} 
Flow 2082: {49 35} {35 32} {32 51} {51 106} 
Flow 2125: {50 7} {7 40} {40 95} 
Flow 2142: {51 30} {30 3} {3 58} 
Flow 2207: {52 13} {13 29} {29 15} {15 70} 
Flow 2218: {13 26} {26 81} 
Flow 2273: {53 14} {14 31} {31 86} 
Flow 2332: {54 50} {50 17} {17 38} {38 93} 
Flow 2340: {54 34} {34 32} {32 46} {46 101} 
Flow 2365: {55 41} {41 13} {13 30} {30 85} 
Flow 2367: {41 9} {9 50} {50 32} {32 87} 
Time taken running everything: 622 seconds
