networks/zoo_110_2380/zoo_110_2380.sol
<?xml version = "1.0" encoding="UTF-8" standalone="yes"?>
<CPLEXSolution version="1.2">
 <header
   problemName="networks/zoo_110_2380/zoo_110_2380.lp"
   solutionName="incumbent"
   solutionIndex="-1"
   objectiveValue="59"
   solutionTypeValue="3"
   solutionTypeString="primal"
   solutionStatusValue="107"
   solutionStatusString="time limit exceeded"
   solutionMethodString="mip"
   primalFeasible="1"
   dualFeasible="0"
   MIPNodes="3498"
   MIPIterations="1058529"
   writeLevel="3"/>
 <quality
   epInt="1.0000000000000001e-05"
   epRHS="9.9999999999999995e-07"
   maxIntInfeas="0"
   maxPrimalInfeas="0"
   maxX="4"
   maxSlack="10"/>
 <variables>
  <variable name="Y(17,18)" index="1777" value="1"/>
  <variable name="Y(27,28)" index="2887" value="1"/>
  <variable name="Y(61,8)" index="6607" value="1"/>
  <variable name="Y(79,27)" index="8606" value="1"/>
  <variable name="Y(108,1)" index="11770" value="1"/>
  <variable name="Y(193,34)" index="21153" value="1"/>
  <variable name="Y(302,40)" index="33149" value="1"/>
  <variable name="Y(366,54)" index="40203" value="1"/>
  <variable name="Y(391,41)" index="42940" value="1"/>
  <variable name="Y(463,9)" index="50828" value="1"/>
  <variable name="Y(508,7)" index="55776" value="1"/>
  <variable name="Y(514,20)" index="56449" value="1"/>
  <variable name="Y(568,50)" index="62419" value="1"/>
  <variable name="Y(577,49)" index="63408" value="1"/>
  <variable name="Y(687,34)" index="75493" value="1"/>
  <variable name="Y(703,47)" index="77266" value="1"/>
  <variable name="Y(719,14)" index="78993" value="1"/>
  <variable name="Y(795,37)" index="87376" value="1"/>
  <variable name="Y(822,19)" index="90328" value="1"/>
  <variable name="Y(939,11)" index="103190" value="1"/>
  <variable name="Y(961,36)" index="105635" value="1"/>
  <variable name="Y(982,50)" index="107959" value="1"/>
  <variable name="Y(1005,24)" index="110463" value="1"/>
  <variable name="Y(1024,43)" index="112572" value="1"/>
  <variable name="Y(1046,10)" index="114959" value="1"/>
  <variable name="Y(1068,32)" index="117401" value="1"/>
  <variable name="Y(1109,32)" index="121911" value="1"/>
  <variable name="Y(1178,22)" index="129491" value="1"/>
  <variable name="Y(1181,26)" index="129825" value="1"/>
  <variable name="Y(1228,46)" index="135015" value="1"/>
  <variable name="Y(1233,52)" index="135571" value="1"/>
  <variable name="Y(1362,25)" index="149734" value="1"/>
  <variable name="Y(1449,33)" index="159312" value="1"/>
  <variable name="Y(1468,53)" index="161422" value="1"/>
  <variable name="Y(1530,12)" index="168201" value="1"/>
  <variable name="Y(1575,6)" index="173145" value="1"/>
  <variable name="Y(1627,45)" index="178904" value="1"/>
  <variable name="Y(1654,21)" index="181850" value="1"/>
  <variable name="Y(1674,42)" index="184071" value="1"/>
  <variable name="Y(1690,5)" index="185794" value="1"/>
  <variable name="Y(1700,15)" index="186904" value="1"/>
  <variable name="Y(1723,38)" index="189457" value="1"/>
  <variable name="Y(1747,16)" index="192075" value="1"/>
  <variable name="Y(1754,39)" index="192868" value="1"/>
  <variable name="Y(1825,44)" index="200683" value="1"/>
  <variable name="Y(1841,17)" index="202416" value="1"/>
  <variable name="Y(1919,13)" index="210992" value="1"/>
  <variable name="Y(1964,51)" index="215980" value="1"/>
  <variable name="Y(2000,33)" index="219922" value="1"/>
  <variable name="Y(2031,30)" index="223329" value="1"/>
  <variable name="Y(2059,23)" index="226402" value="1"/>
  <variable name="Y(2168,29)" index="238398" value="1"/>
  <variable name="Y(2174,35)" index="239064" value="1"/>
  <variable name="Y(2245,55)" index="246894" value="1"/>
  <variable name="Y(2273,31)" index="249950" value="1"/>
  <variable name="Y(2289,48)" index="251727" value="1"/>
  <variable name="Y(2296,2)" index="252451" value="1"/>
  <variable name="Y(2298,4)" index="252673" value="1"/>
  <variable name="Y(2351,3)" index="258502" value="1"/>
  <variable name="X(1,30,27)" index="261826" value="1"/>
  <variable name="X(1,56,108)" index="264287" value="1"/>
  <variable name="X(2,5,61)" index="266620" value="1"/>
  <variable name="X(2,57,2296)" index="271235" value="1"/>
  <variable name="X(3,30,108)" index="271427" value="1"/>
  <variable name="X(3,58,2351)" index="276050" value="1"/>
  <variable name="X(4,32,193)" index="276272" value="1"/>
  <variable name="X(4,59,2298)" index="280757" value="1"/>
  <variable name="X(5,2,2296)" index="283135" value="1"/>
  <variable name="X(5,8,61)" index="283280" value="1"/>
  <variable name="X(5,9,391)" index="285990" value="1"/>
  <variable name="X(5,50,79)" index="288058" value="1"/>
  <variable name="X(5,60,1690)" index="292049" value="1"/>
  <variable name="X(6,50,302)" index="293041" value="1"/>
  <variable name="X(6,61,1575)" index="296694" value="1"/>
  <variable name="X(7,40,302)" index="297801" value="1"/>
  <variable name="X(7,50,366)" index="300245" value="1"/>
  <variable name="X(7,62,508)" index="302767" value="1"/>
  <variable name="X(8,5,391)" index="305030" value="1"/>
  <variable name="X(8,63,61)" index="307080" value="1"/>
  <variable name="X(9,5,1690)" index="311089" value="1"/>
  <variable name="X(9,10,1046)" index="312825" value="1"/>
  <variable name="X(9,20,1178)" index="315337" value="1"/>
  <variable name="X(9,39,1754)" index="318293" value="1"/>
  <variable name="X(9,40,508)" index="319427" value="1"/>
  <variable name="X(9,41,391)" index="321690" value="1"/>
  <variable name="X(9,50,982)" index="324661" value="1"/>
  <variable name="X(9,64,463)" index="326522" value="1"/>
  <variable name="X(10,9,463)" index="328902" value="1"/>
  <variable name="X(10,65,1046)" index="331865" value="1"/>
  <variable name="X(11,19,514)" index="333713" value="1"/>
  <variable name="X(11,66,939)" index="336518" value="1"/>
  <variable name="X(12,26,577)" index="338536" value="1"/>
  <variable name="X(12,67,1530)" index="341869" value="1"/>
  <variable name="X(13,26,79)" index="342798" value="1"/>
  <variable name="X(13,29,1700)" index="346799" value="1"/>
  <variable name="X(13,30,2351)" index="349830" value="1"/>
  <variable name="X(13,41,2245)" index="352104" value="1"/>
  <variable name="X(13,44,1024)" index="353263" value="1"/>
  <variable name="X(13,50,568)" index="355187" value="1"/>
  <variable name="X(13,52,1233)" index="358232" value="1"/>
  <variable name="X(13,68,1919)" index="361298" value="1"/>
  <variable name="X(14,30,2031)" index="363790" value="1"/>
  <variable name="X(14,31,2273)" index="366412" value="1"/>
  <variable name="X(14,32,1362)" index="367881" value="1"/>
  <variable name="X(14,48,2289)" index="371188" value="1"/>
  <variable name="X(14,53,1468)" index="372747" value="1"/>
  <variable name="X(14,69,719)" index="374378" value="1"/>
  <variable name="X(15,29,703)" index="376742" value="1"/>
  <variable name="X(15,70,1700)" index="380119" value="1"/>
  <variable name="X(16,29,2168)" index="382967" value="1"/>
  <variable name="X(16,51,719)" index="383898" value="1"/>
  <variable name="X(16,71,1747)" index="387306" value="1"/>
  <variable name="X(17,20,1654)" index="389593" value="1"/>
  <variable name="X(17,36,961)" index="391280" value="1"/>
  <variable name="X(17,38,1723)" index="394422" value="1"/>
  <variable name="X(17,44,1674)" index="396753" value="1"/>
  <variable name="X(17,50,1575)" index="399034" value="1"/>
  <variable name="X(17,72,1841)" index="401680" value="1"/>
  <variable name="X(18,20,822)" index="403041" value="1"/>
  <variable name="X(18,73,17)" index="404616" value="1"/>
  <variable name="X(19,11,939)" index="407918" value="1"/>
  <variable name="X(19,20,514)" index="409873" value="1"/>
  <variable name="X(19,74,822)" index="412561" value="1"/>
  <variable name="X(20,9,982)" index="415101" value="1"/>
  <variable name="X(20,17,961)" index="417460" value="1"/>
  <variable name="X(20,18,17)" index="418896" value="1"/>
  <variable name="X(20,19,822)" index="422081" value="1"/>
  <variable name="X(20,21,1654)" index="425293" value="1"/>
  <variable name="X(20,22,1178)" index="427197" value="1"/>
  <variable name="X(20,75,514)" index="428913" value="1"/>
  <variable name="X(21,20,961)" index="431740" value="1"/>
  <variable name="X(21,76,1654)" index="434813" value="1"/>
  <variable name="X(22,20,982)" index="436521" value="1"/>
  <variable name="X(22,77,1178)" index="439097" value="1"/>
  <variable name="X(23,32,1005)" index="441304" value="1"/>
  <variable name="X(23,78,2059)" index="444738" value="1"/>
  <variable name="X(24,32,1068)" index="446127" value="1"/>
  <variable name="X(24,79,1005)" index="448444" value="1"/>
  <variable name="X(25,50,1109)" index="450928" value="1"/>
  <variable name="X(25,80,1362)" index="453561" value="1"/>
  <variable name="X(26,12,1530)" index="456109" value="1"/>
  <variable name="X(26,13,568)" index="457527" value="1"/>
  <variable name="X(26,27,79)" index="459418" value="1"/>
  <variable name="X(26,54,577)" index="462296" value="1"/>
  <variable name="X(26,81,1181)" index="465280" value="1"/>
  <variable name="X(27,26,1181)" index="467660" value="1"/>
  <variable name="X(27,82,79)" index="468938" value="1"/>
  <variable name="X(28,29,1233)" index="472472" value="1"/>
  <variable name="X(28,83,27)" index="473646" value="1"/>
  <variable name="X(29,13,1233)" index="477232" value="1"/>
  <variable name="X(29,15,1700)" index="480079" value="1"/>
  <variable name="X(29,16,1747)" index="482506" value="1"/>
  <variable name="X(29,28,27)" index="483166" value="1"/>
  <variable name="X(29,30,703)" index="486222" value="1"/>
  <variable name="X(29,84,2168)" index="490067" value="1"/>
  <variable name="X(30,1,108)" index="490387" value="1"/>
  <variable name="X(30,3,2351)" index="495010" value="1"/>
  <variable name="X(30,13,1024)" index="496063" value="1"/>
  <variable name="X(30,14,719)" index="498138" value="1"/>
  <variable name="X(30,29,27)" index="499826" value="1"/>
  <variable name="X(30,32,1228)" index="503407" value="1"/>
  <variable name="X(30,47,703)" index="505262" value="1"/>
  <variable name="X(30,51,2000)" index="508939" value="1"/>
  <variable name="X(30,85,2031)" index="511350" value="1"/>
  <variable name="X(31,14,1362)" index="513061" value="1"/>
  <variable name="X(31,86,2273)" index="516352" value="1"/>
  <variable name="X(32,4,2298)" index="518757" value="1"/>
  <variable name="X(32,14,1468)" index="520307" value="1"/>
  <variable name="X(32,23,2059)" index="523278" value="1"/>
  <variable name="X(32,24,1005)" index="524604" value="1"/>
  <variable name="X(32,30,1024)" index="527003" value="1"/>
  <variable name="X(32,33,1068)" index="529427" value="1"/>
  <variable name="X(32,34,193)" index="530932" value="1"/>
  <variable name="X(32,35,2174)" index="535293" value="1"/>
  <variable name="X(32,46,1228)" index="536727" value="1"/>
  <variable name="X(32,50,1362)" index="539241" value="1"/>
  <variable name="X(32,51,1964)" index="542223" value="1"/>
  <variable name="X(32,87,1109)" index="543748" value="1"/>
  <variable name="X(33,32,1468)" index="546487" value="1"/>
  <variable name="X(33,51,1449)" index="548848" value="1"/>
  <variable name="X(33,88,2000)" index="551779" value="1"/>
  <variable name="X(34,32,2298)" index="554457" value="1"/>
  <variable name="X(34,54,687)" index="555226" value="1"/>
  <variable name="X(34,89,193)" index="557112" value="1"/>
  <variable name="X(35,32,2059)" index="561358" value="1"/>
  <variable name="X(35,49,577)" index="562256" value="1"/>
  <variable name="X(35,54,1530)" index="565589" value="1"/>
  <variable name="X(35,90,2174)" index="568613" value="1"/>
  <variable name="X(36,17,1575)" index="570394" value="1"/>
  <variable name="X(36,91,961)" index="572160" value="1"/>
  <variable name="X(37,44,1627)" index="575206" value="1"/>
  <variable name="X(37,92,795)" index="576754" value="1"/>
  <variable name="X(38,17,1654)" index="579993" value="1"/>
  <variable name="X(38,93,1723)" index="582442" value="1"/>
  <variable name="X(39,9,1690)" index="584789" value="1"/>
  <variable name="X(39,50,1723)" index="587202" value="1"/>
  <variable name="X(39,94,1754)" index="589613" value="1"/>
  <variable name="X(40,7,508)" index="590747" value="1"/>
  <variable name="X(40,9,1754)" index="594373" value="1"/>
  <variable name="X(40,95,302)" index="595301" value="1"/>
  <variable name="X(41,9,1178)" index="598557" value="1"/>
  <variable name="X(41,13,2351)" index="602110" value="1"/>
  <variable name="X(41,55,2245)" index="604384" value="1"/>
  <variable name="X(41,96,391)" index="604910" value="1"/>
  <variable name="X(42,44,1825)" index="608724" value="1"/>
  <variable name="X(42,97,1674)" index="610953" value="1"/>
  <variable name="X(43,44,1841)" index="613500" value="1"/>
  <variable name="X(43,98,1024)" index="615063" value="1"/>
  <variable name="X(44,13,1919)" index="618338" value="1"/>
  <variable name="X(44,17,1841)" index="620640" value="1"/>
  <variable name="X(44,37,795)" index="621974" value="1"/>
  <variable name="X(44,42,1674)" index="625233" value="1"/>
  <variable name="X(44,43,1024)" index="626963" value="1"/>
  <variable name="X(44,45,1627)" index="629946" value="1"/>
  <variable name="X(44,99,1825)" index="632524" value="1"/>
  <variable name="X(45,44,1919)" index="634998" value="1"/>
  <variable name="X(45,100,1627)" index="637086" value="1"/>
  <variable name="X(46,32,1964)" index="639803" value="1"/>
  <variable name="X(46,101,1228)" index="641447" value="1"/>
  <variable name="X(47,30,2000)" index="644599" value="1"/>
  <variable name="X(47,102,703)" index="645682" value="1"/>
  <variable name="X(48,14,2031)" index="649390" value="1"/>
  <variable name="X(48,103,2289)" index="652028" value="1"/>
  <variable name="X(49,35,2059)" index="654178" value="1"/>
  <variable name="X(49,104,577)" index="655076" value="1"/>
  <variable name="X(50,5,2296)" index="659175" value="1"/>
  <variable name="X(50,6,1575)" index="660834" value="1"/>
  <variable name="X(50,7,302)" index="661941" value="1"/>
  <variable name="X(50,9,1046)" index="665065" value="1"/>
  <variable name="X(50,13,79)" index="666478" value="1"/>
  <variable name="X(50,17,1723)" index="670502" value="1"/>
  <variable name="X(50,25,1362)" index="672521" value="1"/>
  <variable name="X(50,32,1109)" index="674648" value="1"/>
  <variable name="X(50,39,568)" index="676487" value="1"/>
  <variable name="X(50,54,366)" index="678665" value="1"/>
  <variable name="X(50,105,982)" index="681661" value="1"/>
  <variable name="X(51,16,2168)" index="685227" value="1"/>
  <variable name="X(51,30,719)" index="686158" value="1"/>
  <variable name="X(51,32,2174)" index="689993" value="1"/>
  <variable name="X(51,33,2000)" index="692199" value="1"/>
  <variable name="X(51,106,1964)" index="694543" value="1"/>
  <variable name="X(52,13,2245)" index="697204" value="1"/>
  <variable name="X(52,107,1233)" index="698572" value="1"/>
  <variable name="X(53,14,2289)" index="702008" value="1"/>
  <variable name="X(53,108,1468)" index="703567" value="1"/>
  <variable name="X(54,26,1530)" index="706009" value="1"/>
  <variable name="X(54,34,2298)" index="709157" value="1"/>
  <variable name="X(54,35,577)" index="709816" value="1"/>
  <variable name="X(54,50,2296)" index="713915" value="1"/>
  <variable name="X(54,109,366)" index="714365" value="1"/>
  <variable name="X(55,41,2351)" index="718730" value="1"/>
  <variable name="X(55,110,2245)" index="721004" value="1"/>
  <variable name="C(17,18)" index="721223" value="1"/>
  <variable name="C(27,30)" index="721274" value="1"/>
  <variable name="C(27,29)" index="721275" value="2"/>
  <variable name="C(27,28)" index="721276" value="3"/>
  <variable name="C(61,5)" index="721421" value="1"/>
  <variable name="C(61,8)" index="721422" value="2"/>
  <variable name="C(79,50)" index="721506" value="1"/>
  <variable name="C(79,13)" index="721507" value="2"/>
  <variable name="C(79,26)" index="721508" value="3"/>
  <variable name="C(79,27)" index="721509" value="4"/>
  <variable name="C(108,30)" index="721654" value="1"/>
  <variable name="C(108,1)" index="721655" value="2"/>
  <variable name="C(193,32)" index="722044" value="1"/>
  <variable name="C(193,34)" index="722045" value="2"/>
  <variable name="C(302,50)" index="722495" value="1"/>
  <variable name="C(302,7)" index="722496" value="2"/>
  <variable name="C(302,40)" index="722497" value="3"/>
  <variable name="C(366,50)" index="722763" value="1"/>
  <variable name="C(366,54)" index="722764" value="2"/>
  <variable name="C(391,5)" index="722877" value="1"/>
  <variable name="C(391,9)" index="722878" value="2"/>
  <variable name="C(391,41)" index="722879" value="3"/>
  <variable name="C(463,9)" index="723168" value="1"/>
  <variable name="C(508,40)" index="723393" value="1"/>
  <variable name="C(508,7)" index="723394" value="2"/>
  <variable name="C(514,19)" index="723423" value="1"/>
  <variable name="C(514,20)" index="723424" value="2"/>
  <variable name="C(568,13)" index="723730" value="1"/>
  <variable name="C(568,50)" index="723731" value="2"/>
  <variable name="C(577,26)" index="723775" value="1"/>
  <variable name="C(577,54)" index="723776" value="2"/>
  <variable name="C(577,35)" index="723777" value="3"/>
  <variable name="C(577,49)" index="723778" value="4"/>
  <variable name="C(703,29)" index="724251" value="1"/>
  <variable name="C(703,30)" index="724252" value="2"/>
  <variable name="C(703,47)" index="724253" value="3"/>
  <variable name="C(719,51)" index="724329" value="1"/>
  <variable name="C(719,30)" index="724330" value="2"/>
  <variable name="C(719,14)" index="724331" value="3"/>
  <variable name="C(795,37)" index="724652" value="1"/>
  <variable name="C(822,20)" index="724764" value="1"/>
  <variable name="C(822,19)" index="724765" value="2"/>
  <variable name="C(939,11)" index="725327" value="1"/>
  <variable name="C(961,20)" index="725444" value="1"/>
  <variable name="C(961,17)" index="725445" value="2"/>
  <variable name="C(961,36)" index="725446" value="3"/>
  <variable name="C(982,20)" index="725552" value="1"/>
  <variable name="C(982,9)" index="725553" value="2"/>
  <variable name="C(982,50)" index="725554" value="3"/>
  <variable name="C(1005,32)" index="725660" value="1"/>
  <variable name="C(1005,24)" index="725661" value="2"/>
  <variable name="C(1024,30)" index="725742" value="1"/>
  <variable name="C(1024,13)" index="725743" value="2"/>
  <variable name="C(1024,44)" index="725744" value="3"/>
  <variable name="C(1024,43)" index="725745" value="4"/>
  <variable name="C(1046,9)" index="725837" value="1"/>
  <variable name="C(1046,10)" index="725838" value="2"/>
  <variable name="C(1068,32)" index="725938" value="1"/>
  <variable name="C(1109,50)" index="726111" value="1"/>
  <variable name="C(1109,32)" index="726112" value="2"/>
  <variable name="C(1178,9)" index="726414" value="1"/>
  <variable name="C(1178,20)" index="726415" value="2"/>
  <variable name="C(1178,22)" index="726416" value="3"/>
  <variable name="C(1181,26)" index="726430" value="1"/>
  <variable name="C(1228,32)" index="726649" value="1"/>
  <variable name="C(1228,46)" index="726650" value="2"/>
  <variable name="C(1233,29)" index="726670" value="1"/>
  <variable name="C(1233,13)" index="726671" value="2"/>
  <variable name="C(1233,52)" index="726672" value="3"/>
  <variable name="C(1362,14)" index="727194" value="1"/>
  <variable name="C(1362,32)" index="727195" value="2"/>
  <variable name="C(1362,50)" index="727196" value="3"/>
  <variable name="C(1362,25)" index="727197" value="4"/>
  <variable name="C(1468,32)" index="727605" value="1"/>
  <variable name="C(1468,14)" index="727606" value="2"/>
  <variable name="C(1468,53)" index="727607" value="3"/>
  <variable name="C(1530,54)" index="727869" value="1"/>
  <variable name="C(1530,26)" index="727870" value="2"/>
  <variable name="C(1530,12)" index="727871" value="3"/>
  <variable name="C(1575,17)" index="728064" value="1"/>
  <variable name="C(1575,50)" index="728065" value="2"/>
  <variable name="C(1575,6)" index="728066" value="3"/>
  <variable name="C(1627,44)" index="728309" value="1"/>
  <variable name="C(1627,45)" index="728310" value="2"/>
  <variable name="C(1654,38)" index="728437" value="1"/>
  <variable name="C(1654,17)" index="728438" value="2"/>
  <variable name="C(1654,20)" index="728439" value="3"/>
  <variable name="C(1654,21)" index="728440" value="4"/>
  <variable name="C(1674,44)" index="728534" value="1"/>
  <variable name="C(1674,42)" index="728535" value="2"/>
  <variable name="C(1690,9)" index="728608" value="1"/>
  <variable name="C(1690,5)" index="728609" value="2"/>
  <variable name="C(1700,29)" index="728645" value="1"/>
  <variable name="C(1700,15)" index="728646" value="2"/>
  <variable name="C(1723,50)" index="728737" value="1"/>
  <variable name="C(1723,17)" index="728738" value="2"/>
  <variable name="C(1723,38)" index="728739" value="3"/>
  <variable name="C(1747,16)" index="728841" value="1"/>
  <variable name="C(1754,9)" index="728872" value="1"/>
  <variable name="C(1754,39)" index="728873" value="2"/>
  <variable name="C(1825,44)" index="729170" value="1"/>
  <variable name="C(1841,44)" index="729245" value="1"/>
  <variable name="C(1841,17)" index="729246" value="2"/>
  <variable name="C(1919,44)" index="729577" value="1"/>
  <variable name="C(1919,13)" index="729578" value="2"/>
  <variable name="C(1964,32)" index="729772" value="1"/>
  <variable name="C(1964,51)" index="729773" value="2"/>
  <variable name="C(2000,30)" index="729940" value="1"/>
  <variable name="C(2000,51)" index="729941" value="2"/>
  <variable name="C(2000,33)" index="729942" value="3"/>
  <variable name="C(2031,14)" index="730078" value="1"/>
  <variable name="C(2031,30)" index="730079" value="2"/>
  <variable name="C(2059,35)" index="730221" value="1"/>
  <variable name="C(2059,32)" index="730222" value="2"/>
  <variable name="C(2059,23)" index="730223" value="3"/>
  <variable name="C(2168,16)" index="730649" value="1"/>
  <variable name="C(2168,29)" index="730650" value="1.9999999999999998"/>
  <variable name="C(2174,32)" index="730665" value="1"/>
  <variable name="C(2174,35)" index="730666" value="2"/>
  <variable name="C(2245,13)" index="730975" value="1"/>
  <variable name="C(2245,41)" index="730976" value="2"/>
  <variable name="C(2245,55)" index="730977" value="3"/>
  <variable name="C(2273,31)" index="731116" value="1"/>
  <variable name="C(2289,14)" index="731192" value="1"/>
  <variable name="C(2289,48)" index="731193" value="2"/>
  <variable name="C(2296,50)" index="731223" value="1"/>
  <variable name="C(2296,5)" index="731224" value="2"/>
  <variable name="C(2296,2)" index="731225" value="3"/>
  <variable name="C(2298,34)" index="731232" value="1"/>
  <variable name="C(2298,32)" index="731233" value="2"/>
  <variable name="C(2298,4)" index="731234" value="3"/>
  <variable name="C(2351,41)" index="731444" value="1"/>
  <variable name="C(2351,13)" index="731445" value="2"/>
  <variable name="C(2351,30)" index="731446" value="3"/>
  <variable name="C(2351,3)" index="731447" value="4"/>
 </variables>
</CPLEXSolution>
